language ESSENCE' 1.0
letting lastdx=93
letting cage be [
[23,1,9,2,9,2,8,1,8,1,7],
[24,15,11,15,10,14,10,0,0, 0,0],
[17,9,6,9,5,0,0, 0,0, 0,0],
[33,5,5,5,4,6,4,0,0, 0,0],
[52,1,12,1,11,2,11,2,10,1,10],
[27,9,12,10,12,0,0, 0,0, 0,0],
[40,11,6,11,7,11,8,12,8,0,0],
[4,7,16,0,0, 0,0, 0,0, 0,0],
[14,6,1,5,1,5,2,6,2,0,0],
[2,7,5,0,0, 0,0, 0,0, 0,0],
[37,16,16,15,16,14,16,0,0, 0,0],
[52,7,1,8,1,8,2,8,3,8,4],
[7,16,2,0,0, 0,0, 0,0, 0,0],
[28,13,15,14,15,14,14,15,14,0,0],
[41,12,5,12,6,13,6,13,5,0,0],
[26,9,9,8,9,0,0, 0,0, 0,0],
[11,1,1,0,0, 0,0, 0,0, 0,0],
[37,11,2,12,2,12,1,11,1,10,1],
[5,10,5,0,0, 0,0, 0,0, 0,0],
[5,16,6,0,0, 0,0, 0,0, 0,0],
[13,4,10,5,10,0,0, 0,0, 0,0],
[14,7,2,0,0, 0,0, 0,0, 0,0],
[19,4,1,4,2,0,0, 0,0, 0,0],
[27,8,16,9,16,9,15,0,0, 0,0],
[1,16,10,0,0, 0,0, 0,0, 0,0],
[9,11,14,0,0, 0,0, 0,0, 0,0],
[34,11,3,12,3,12,4,13,4,13,3],
[32,12,13,11,13,11,12,0,0, 0,0],
[4,2,12,0,0, 0,0, 0,0, 0,0],
[5,7,10,0,0, 0,0, 0,0, 0,0],
[7,15,4,14,4,0,0, 0,0, 0,0],
[11,5,15,0,0, 0,0, 0,0, 0,0],
[26,12,9,13,9,0,0, 0,0, 0,0],
[7,5,9,0,0, 0,0, 0,0, 0,0],
[5,3,9,0,0, 0,0, 0,0, 0,0],
[39,9,2,9,1,10,2,10,3,0,0],
[16,10,14,0,0, 0,0, 0,0, 0,0],
[23,7,3,7,4,0,0, 0,0, 0,0],
[46,2,16,1,16,1,15,1,14,1,13],
[30,12,11,11,11,10,11,9,11,9,10],
[7,7,7,0,0, 0,0, 0,0, 0,0],
[14,10,10,10,9,10,8,0,0, 0,0],
[8,6,5,0,0, 0,0, 0,0, 0,0],
[36,13,16,12,16,11,16,10,16,0,0],
[15,2,13,0,0, 0,0, 0,0, 0,0],
[30,1,6,1,5,2,5,0,0, 0,0],
[12,6,15,0,0, 0,0, 0,0, 0,0],
[53,13,2,13,1,14,1,15,1,16,1],
[20,2,7,2,6,0,0, 0,0, 0,0],
[14,13,12,12,12,0,0, 0,0, 0,0],
[48,3,11,3,10,3,12,3,13,0,0],
[13,5,12,0,0, 0,0, 0,0, 0,0],
[10,6,3,0,0, 0,0, 0,0, 0,0],
[3,6,16,0,0, 0,0, 0,0, 0,0],
[4,11,5,0,0, 0,0, 0,0, 0,0],
[5,4,15,0,0, 0,0, 0,0, 0,0],
[15,14,8,0,0, 0,0, 0,0, 0,0],
[11,16,14,0,0, 0,0, 0,0, 0,0],
[37,15,2,15,3,14,3,14,2,0,0],
[23,2,15,2,14,3,14,4,14,5,14],
[19,4,3,5,3,0,0, 0,0, 0,0],
[43,6,7,6,8,6,9,7,9,7,8],
[36,14,7,13,7,12,7,13,8,0,0],
[3,3,3,0,0, 0,0, 0,0, 0,0],
[25,4,5,4,4,4,6,5,6,0,0],
[32,9,7,8,7,8,6,8,5,0,0],
[41,1,2,2,2,3,2,3,1,2,1],
[21,1,3,1,4,2,3,0,0, 0,0],
[8,3,15,0,0, 0,0, 0,0, 0,0],
[19,4,11,4,12,0,0, 0,0, 0,0],
[7,4,13,0,0, 0,0, 0,0, 0,0],
[25,5,7,5,8,0,0, 0,0, 0,0],
[15,5,11,0,0, 0,0, 0,0, 0,0],
[7,6,6,7,6,0,0, 0,0, 0,0],
[34,6,10,6,11,7,11,0,0, 0,0],
[40,6,14,7,14,7,13,8,13,8,14],
[20,7,15,8,15,0,0, 0,0, 0,0],
[13,8,8,9,8,0,0, 0,0, 0,0],
[16,8,10,0,0, 0,0, 0,0, 0,0],
[14,8,11,8,12,0,0, 0,0, 0,0],
[44,9,3,9,4,10,4,11,4,0,0],
[17,9,13,9,14,10,13,0,0, 0,0],
[14,10,6,10,7,0,0, 0,0, 0,0],
[23,10,15,11,15,12,15,12,14,0,0],
[31,11,9,11,10,12,10,0,0, 0,0],
[36,13,10,13,11,14,11,14,12,14,13],
[20,13,13,13,14,0,0, 0,0, 0,0],
[20,14,5,14,6,15,6,0,0, 0,0],
[21,14,9,15,9,0,0, 0,0, 0,0],
[42,15,5,16,5,16,4,16,3,0,0],
[51,15,7,15,8,16,8,16,7,16,9],
[5,15,12,0,0, 0,0, 0,0, 0,0],
[17,15,13,16,13,16,12,16,11,0,0],
[20,15,15,16,15,0,0, 0,0, 0,0]
]
